num_offers = 40;
num_halls = 10;
start=[67,6,45,13,15,46,36,3,5,29,53,61,51,26,39,10,14,27,30,58,25,1,68,3,6,64,67,23,7,61,18,18,22,8,4,43,61,7,28,4];
end=[75,65,46,29,85,76,58,9,46,48,76,97,78,80,87,89,99,43,74,74,89,49,96,79,14,82,71,83,80,72,24,46,24,19,53,62,81,74,78,95];
price=[388,3608,105,1498,2949,1693,1556,90,1424,1510,1664,1205,364,3033,3919,1610,5668,1191,2741,682,5757,1723,349,7213,156,799,466,5662,2790,1164,138,2596,144,361,1048,395,2047,3937,2991,2768];
requirement=[343,514,253,980,327,507,769,788,892,455,249,400,790,329,407,735,919,394,398,702,362,304,749,749,697,353,472,700,906,941,793,945,202,659,209,701,529,265,510,573];
capacity=[548,535,694,544,723,411,677,711,268,514];
